num_tasks=42;
num_machines=3;
comp_cost=[|0, 0, 0, 
|148, 95, 79,
|74, 127, 101,
|112, 142, 122,
|148, 92, 116,
|141, 66, 130,
|95, 50, 146,
|128, 123, 114,
|77, 80, 110,
|143, 89, 50,
|95, 117, 124,
|77, 70, 135,
|67, 67, 112,
|126, 67, 50,
|119, 57, 133,
|57, 65, 94,
|91, 100, 131,
|112, 51, 74,
|100, 90, 96,
|147, 97, 57,
|109, 142, 63,
|76, 56, 118,
|103, 112, 118,
|63, 124, 52,
|122, 142, 59,
|145, 69, 81,
|138, 145, 84,
|86, 127, 104,
|79, 125, 127,
|131, 74, 95,
|131, 143, 57,
|110, 89, 147,
|126, 55, 51,
|105, 133, 67,
|144, 140, 146,
|52, 100, 50,
|141, 108, 73,
|72, 143, 73,
|117, 51, 114,
|103, 107, 83,
|113, 108, 82,
|0, 0, 0|];
comm_cost=[|0,0,0,0,0,0,0,0,0,0,0,0,0,0,0,0,0,0,0,0,0,0,0,0,0,0,0,0,0,0,0,0,0,0,0,0,0
,0,0,0,0,0,
|0,0,57,51,142,103,126,81,143,91,139,92,52,133,91,110,64,67
,111,63,91,126,0,0,0,0,0,0,0,0,0,0,0,0,0,0
,0,0,0,0,0,0,
|0,0,0,0,145,0,85,145,123,0,147,75,0,0,100,0,88,0
,0,0,0,130,0,61,134,0,133,0,103,74,109,0,78,0,143,0
,0,139,0,103,0,0,
|0,0,0,0,0,0,0,59,56,80,0,0,0,0,0,68,128,55
,78,147,0,61,0,0,99,0,114,0,58,50,91,0,56,0,128,0
,77,0,0,84,66,0,
|0,0,0,0,0,0,0,0,0,0,111,0,0,0,62,0,0,0
,56,109,149,0,0,72,74,76,0,0,0,75,0,0,0,0,0,0
,0,0,0,0,59,0,
|0,0,0,0,0,0,60,67,0,0,0,0,79,0,119,136,57,0
,149,0,0,126,0,0,0,140,0,72,106,0,0,0,0,101,137,0
,0,123,0,132,0,0,
|0,0,0,0,0,0,0,118,146,0,0,0,0,141,52,0,146,131
,134,137,0,77,0,0,0,0,0,0,110,84,96,0,0,132,0,0
,0,93,0,0,108,0,
|0,0,0,0,0,0,0,0,82,0,0,113,100,0,144,0,138,0
,106,0,54,0,0,0,0,0,75,0,0,0,0,71,0,101,70,0
,0,0,0,0,0,0,
|0,0,0,0,0,0,0,0,0,110,0,89,93,0,0,55,97,0
,59,0,138,0,0,0,0,60,0,139,82,137,0,0,70,0,0,0
,0,0,0,0,77,0,
|0,0,0,0,0,0,0,0,0,0,83,0,0,103,82,83,117,0
,62,0,91,136,0,0,0,146,74,0,0,0,0,128,0,0,0,0
,0,0,0,0,128,0,
|0,0,0,0,0,0,0,0,0,0,0,111,0,94,67,82,103,94
,0,113,57,62,0,0,0,0,0,0,0,0,62,81,0,57,86,0
,57,0,0,0,0,0,
|0,0,0,0,0,0,0,0,0,0,0,0,0,0,0,0,140,0
,0,95,0,0,0,0,0,0,0,103,0,0,0,139,0,53,0,0
,0,0,0,0,0,0,
|0,0,0,0,0,0,0,0,0,0,0,0,0,57,130,0,0,134
,0,67,70,0,0,0,0,0,0,0,0,100,0,75,0,148,0,0
,139,125,0,0,0,0,
|0,0,0,0,0,0,0,0,0,0,0,0,0,0,86,126,79,132
,0,0,0,0,0,0,0,0,0,113,0,0,0,77,0,0,73,0
,0,135,0,0,0,0,
|0,0,0,0,0,0,0,0,0,0,0,0,0,0,0,0,100,50
,0,0,69,106,0,0,0,0,0,0,0,0,0,0,69,0,0,0
,0,0,0,0,0,0,
|0,0,0,0,0,0,0,0,0,0,0,0,0,0,0,0,133,104
,88,125,0,0,0,0,0,0,0,0,63,138,108,83,0,0,0,0
,52,54,0,0,0,0,
|0,0,0,0,0,0,0,0,0,0,0,0,0,0,0,0,0,97
,0,0,0,0,0,0,0,0,0,0,97,0,0,98,0,0,145,0
,0,0,0,0,0,0,
|0,0,0,0,0,0,0,0,0,0,0,0,0,0,0,0,0,0
,95,74,87,0,0,0,0,0,0,0,0,138,0,118,0,0,98,0
,0,117,0,0,0,0,
|0,0,0,0,0,0,0,0,0,0,0,0,0,0,0,0,0,0
,0,0,113,0,0,0,0,0,0,0,101,0,0,0,95,101,72,0
,0,0,0,0,0,0,
|0,0,0,0,0,0,0,0,0,0,0,0,0,0,0,0,0,0,0,0,86,0,0,0
,0,0,0,0,0,0,0,0,0,55,0,0,0,0,0,0,0,0,
|0,0,0,0,0,0,0,0,0,0,0,0,0,0,0,0,0,0,0,0,0,0,0,0,0,0,0,0,0,0,0,0,0,0,0,0,0
,0,0,0,0,0,
|0,0,0,0,0,0,0,0,0,0,0,0,0,0,0,0,0,0,0,0,0,0,0,0,0,0,0,0,0,0,0,0,0,0,0,0,0
,0,0,0,0,0,
|0,0,62,0,79,90,121,52,0,51,71,128,69,0,0,0,0,0
,0,0,118,0,0,95,56,95,83,77,75,62,68,54,107,96,88,0
,0,0,0,0,0,0,
|0,0,0,0,0,0,92,58,121,0,101,83,0,73,80,0,0,0
,146,0,0,100,0,0,0,0,126,149,53,106,0,0,0,80,0,0
,0,0,0,120,104,0,
|0,0,0,0,0,119,0,0,100,0,131,122,0,0,108,54,131,111
,0,134,97,81,0,0,0,0,0,0,0,144,136,0,0,90,0,0
,0,63,0,0,0,0,
|0,0,0,0,0,0,0,0,0,0,147,0,0,0,122,0,96,0
,84,113,55,67,0,0,0,0,59,54,144,137,0,0,0,94,90,0
,0,0,0,0,0,0,
|0,0,0,0,0,0,0,0,0,0,0,0,104,122,57,0,74,88
,134,148,129,116,0,0,0,0,0,0,127,0,0,135,0,0,129,0
,0,132,0,0,0,0,
|0,0,0,0,0,0,0,0,0,0,0,0,0,0,0,69,0,97
,84,123,116,0,0,0,0,0,0,0,117,146,0,135,0,0,0,0
,115,143,0,0,0,0,
|0,0,0,0,0,0,0,0,0,0,0,0,0,0,0,0,0,0,0,0,0,0,0,0
,0,0,0,0,0,74,70,0,0,85,0,0,0,0,0,0,0,0,
|0,0,0,0,0,0,0,0,0,0,0,0,0,0,0,0,0,0
,0,0,134,0,0,0,0,0,0,0,0,0,0,62,0,0,107,0
,0,0,0,0,0,0,
|0,0,0,0,0,0,0,0,0,0,0,0,0,0,0,0,0,0
,0,133,68,69,0,0,0,0,0,0,0,0,0,0,0,0,125,0
,0,0,0,0,0,0,
|0,0,0,0,0,0,0,0,0,0,0,0,0,0,0,0,0,0
,0,112,94,79,0,0,0,0,0,0,0,0,0,0,55,0,0,0
,0,0,0,0,0,0,
|0,0,0,0,0,0,0,0,0,0,0,0,0,0,0,0,0,0
,0,0,144,0,0,0,0,0,0,0,0,0,0,0,0,0,52,0
,0,0,0,0,0,0,
|0,0,0,0,0,0,0,0,0,0,0,0,0,0,0,0,0,0,0,0,0,0,0,0,0,0,0,0,0,0,0,0,0,0,0,0,0
,0,0,0,0,0,
|0,0,0,0,0,0,0,0,0,0,0,0,0,0,0,0,0,0,0,0,0,0,0,0,0,0,0,0,0,0,0,0,0,0,0,0,0
,0,0,0,0,0,
|0,0,115,0,0,0,54,55,0,51,135,95,133,0,124,0,0,56
,55,57,0,149,0,0,83,0,0,140,0,0,0,64,67,119,0,0
,94,142,0,0,0,0,
|0,0,0,0,0,0,0,0,0,0,0,0,0,0,0,0,0,0
,119,135,0,111,0,0,0,0,0,0,0,83,68,0,65,53,100,0
,0,82,0,0,0,0,
|0,0,0,0,0,0,0,0,0,0,0,0,0,0,0,0,0,0
,0,81,0,71,0,0,0,0,0,0,0,0,0,146,0,0,0,0
,0,0,0,0,0,0,
|0,0,89,0,0,132,0,63,132,0,121,0,0,0,76,0,128,0
,0,0,0,0,0,88,0,132,0,0,113,112,117,0,0,0,0,0
,0,0,0,69,125,0,
|0,0,0,0,0,0,0,0,137,83,126,62,131,52,0,0,64,0
,106,100,0,69,0,0,0,0,0,115,0,129,128,85,0,0,82,0
,0,0,0,0,79,0,
|0,0,0,0,0,0,0,0,0,0,139,0,88,147,109,0,0,69
,142,75,100,145,0,0,0,0,114,117,0,0,56,0,125,53,55,0
,0,0,0,0,0,0,
|0,0,0,0,0,0,0,0,0,0,0,0,0,0,0,0,0,0,0,0,0,0,0,0,0,0,0,0,0,0,0,0,0,0,0,0,0
,0,0,0,0,0|];
max_time=5000;
